1
40
60
16 4
19 6
9 21
4 8
2 11
10 15
12 14
5 18
31 11
5 23
28 27
2 9
17 33
35 3
27 9
14 10
26 16
2 11
30 25
2 32
31 15
31 6
33 14
10 21
16 25
13 33
8 29
21 11
13 19
26 5
11 33
32 7
29 17
20 23
1 33
16 31
13 15
24 25
22 13
26 8
32 20
13 31
24 4
25 16
24 17
6 2
2 15
19 4
7 2
33 15
34 29
29 4
14 18
33 20
34 8
15 22
17 14
25 14
35 29
20 10
